04_frontend_stage/rtl-interrupt_ctrl/formal/interrupt_ctrl/model/design_smt2.smt2
; SMT-LIBv2 description generated by Yosys 0.65+71 (git sha1 e56c6a954, clang++ 18.1.8 -fPIC -O3)
; yosys-smt2-module interrupt_ctrl
(declare-sort |interrupt_ctrl_s| 0)
(declare-fun |interrupt_ctrl_is| (|interrupt_ctrl_s|) Bool)
; yosys-smt2-anyinit interrupt_ctrl#0 16 interrupt_ctrl.v:46.5-57.8
; yosys-smt2-witness {"offset": 0, "path": ["\\_witness_", "\\anyinit_procdff_90"], "smtname": 0, "smtoffset": 0, "type": "init", "width": 16}
(declare-fun |interrupt_ctrl#0| (|interrupt_ctrl_s|) (_ BitVec 16)) ; \_witness_.anyinit_procdff_90
; yosys-smt2-register _witness_.anyinit_procdff_90 16
; yosys-smt2-wire _witness_.anyinit_procdff_90 16
(define-fun |interrupt_ctrl_n _witness_.anyinit_procdff_90| ((state |interrupt_ctrl_s|)) (_ BitVec 16) (|interrupt_ctrl#0| state))
(declare-fun |interrupt_ctrl#1| (|interrupt_ctrl_s|) Bool) ; \psel
(declare-fun |interrupt_ctrl#2| (|interrupt_ctrl_s|) Bool) ; \penable
(define-fun |interrupt_ctrl#3| ((state |interrupt_ctrl_s|)) Bool (and (or  (|interrupt_ctrl#1| state) false) (or  (|interrupt_ctrl#2| state) false))) ; $logic_and$interrupt_ctrl.v:43$1_Y
(declare-fun |interrupt_ctrl#4| (|interrupt_ctrl_s|) Bool) ; \pwrite
(define-fun |interrupt_ctrl#5| ((state |interrupt_ctrl_s|)) Bool (not (or  (|interrupt_ctrl#4| state) false))) ; $logic_not$interrupt_ctrl.v:44$4_Y
(define-fun |interrupt_ctrl#6| ((state |interrupt_ctrl_s|)) Bool (and (or  (|interrupt_ctrl#3| state) false) (or  (|interrupt_ctrl#5| state) false))) ; \apb_read
; yosys-smt2-wire apb_read 1
(define-fun |interrupt_ctrl_n apb_read| ((state |interrupt_ctrl_s|)) Bool (|interrupt_ctrl#6| state))
(define-fun |interrupt_ctrl#7| ((state |interrupt_ctrl_s|)) Bool (and (or  (|interrupt_ctrl#3| state) false) (or  (|interrupt_ctrl#4| state) false))) ; \apb_write
; yosys-smt2-wire apb_write 1
(define-fun |interrupt_ctrl_n apb_write| ((state |interrupt_ctrl_s|)) Bool (|interrupt_ctrl#7| state))
(declare-fun |interrupt_ctrl#8| (|interrupt_ctrl_s|) Bool) ; \clk_i
; yosys-smt2-input clk_i 1
; yosys-smt2-wire clk_i 1
; yosys-smt2-clock clk_i posedge
; yosys-smt2-witness {"offset": 0, "path": ["\\clk_i"], "smtname": "clk_i", "smtoffset": 0, "type": "posedge", "width": 1}
; yosys-smt2-witness {"offset": 0, "path": ["\\clk_i"], "smtname": "clk_i", "smtoffset": 0, "type": "input", "width": 1}
(define-fun |interrupt_ctrl_n clk_i| ((state |interrupt_ctrl_s|)) Bool (|interrupt_ctrl#8| state))
(declare-fun |interrupt_ctrl#9| (|interrupt_ctrl_s|) (_ BitVec 13)) ; \irq_in
(declare-fun |interrupt_ctrl#10| (|interrupt_ctrl_s|) (_ BitVec 1)) ; \rst_ni
(define-fun |interrupt_ctrl#11| ((state |interrupt_ctrl_s|)) (_ BitVec 16) (ite (= ((_ extract 0 0) (|interrupt_ctrl#10| state)) #b1) (|interrupt_ctrl#0| state) #b0000000000000000)) ; \irq_en
(define-fun |interrupt_ctrl#12| ((state |interrupt_ctrl_s|)) (_ BitVec 13) (bvand (|interrupt_ctrl#9| state) ((_ extract 12 0) (|interrupt_ctrl#11| state)))) ; \irq_pending_comb
(define-fun |interrupt_ctrl#13| ((state |interrupt_ctrl_s|)) Bool (distinct (|interrupt_ctrl#12| state) #b0000000000000)) ; \cpu_irq_o
; yosys-smt2-wire cpu_irq_comb 1
(define-fun |interrupt_ctrl_n cpu_irq_comb| ((state |interrupt_ctrl_s|)) Bool (|interrupt_ctrl#13| state))
; yosys-smt2-output cpu_irq_o 1
; yosys-smt2-wire cpu_irq_o 1
(define-fun |interrupt_ctrl_n cpu_irq_o| ((state |interrupt_ctrl_s|)) Bool (|interrupt_ctrl#13| state))
; yosys-smt2-wire irq_en 16
(define-fun |interrupt_ctrl_n irq_en| ((state |interrupt_ctrl_s|)) (_ BitVec 16) (|interrupt_ctrl#11| state))
; yosys-smt2-input irq_in 13
; yosys-smt2-wire irq_in 13
; yosys-smt2-witness {"offset": 0, "path": ["\\irq_in"], "smtname": "irq_in", "smtoffset": 0, "type": "input", "width": 13}
(define-fun |interrupt_ctrl_n irq_in| ((state |interrupt_ctrl_s|)) (_ BitVec 13) (|interrupt_ctrl#9| state))
; yosys-smt2-wire irq_pending_comb 13
(define-fun |interrupt_ctrl_n irq_pending_comb| ((state |interrupt_ctrl_s|)) (_ BitVec 13) (|interrupt_ctrl#12| state))
(declare-fun |interrupt_ctrl#14| (|interrupt_ctrl_s|) (_ BitVec 8)) ; \paddr
; yosys-smt2-input paddr 8
; yosys-smt2-wire paddr 8
; yosys-smt2-witness {"offset": 0, "path": ["\\paddr"], "smtname": "paddr", "smtoffset": 0, "type": "input", "width": 8}
(define-fun |interrupt_ctrl_n paddr| ((state |interrupt_ctrl_s|)) (_ BitVec 8) (|interrupt_ctrl#14| state))
; yosys-smt2-input penable 1
; yosys-smt2-wire penable 1
; yosys-smt2-witness {"offset": 0, "path": ["\\penable"], "smtname": "penable", "smtoffset": 0, "type": "input", "width": 1}
(define-fun |interrupt_ctrl_n penable| ((state |interrupt_ctrl_s|)) Bool (|interrupt_ctrl#2| state))
(define-fun |interrupt_ctrl#15| ((state |interrupt_ctrl_s|)) Bool (= (|interrupt_ctrl#14| state) #b00001000)) ; $procmux$74_CMP
(define-fun |interrupt_ctrl#16| ((state |interrupt_ctrl_s|)) Bool (= (|interrupt_ctrl#14| state) #b00000100)) ; $procmux$75_CMP
(define-fun |interrupt_ctrl#17| ((state |interrupt_ctrl_s|)) Bool (not (or  (= ((_ extract 0 0) (|interrupt_ctrl#14| state)) #b1) (= ((_ extract 1 1) (|interrupt_ctrl#14| state)) #b1) (= ((_ extract 2 2) (|interrupt_ctrl#14| state)) #b1) (= ((_ extract 3 3) (|interrupt_ctrl#14| state)) #b1) (= ((_ extract 4 4) (|interrupt_ctrl#14| state)) #b1) (= ((_ extract 5 5) (|interrupt_ctrl#14| state)) #b1) (= ((_ extract 6 6) (|interrupt_ctrl#14| state)) #b1) (= ((_ extract 7 7) (|interrupt_ctrl#14| state)) #b1)))) ; $procmux$76_CMP
(define-fun |interrupt_ctrl#18| ((state |interrupt_ctrl_s|)) (_ BitVec 16) (ite (|interrupt_ctrl#17| state) (|interrupt_ctrl#11| state) (ite (|interrupt_ctrl#16| state) (concat #b000 (|interrupt_ctrl#12| state)) (ite (|interrupt_ctrl#15| state) (concat #b000000000000000 (ite (|interrupt_ctrl#13| state) #b1 #b0)) #b0000000000000000)))) ; $2\prdata[31:0]
(define-fun |interrupt_ctrl#19| ((state |interrupt_ctrl_s|)) (_ BitVec 16) (ite (|interrupt_ctrl#6| state) (|interrupt_ctrl#18| state) #b0000000000000000)) ; \prdata [15:0]
; yosys-smt2-output prdata 32
; yosys-smt2-wire prdata 32
(define-fun |interrupt_ctrl_n prdata| ((state |interrupt_ctrl_s|)) (_ BitVec 32) (concat #b0000000000000000 (|interrupt_ctrl#19| state)))
; yosys-smt2-output pready 1
; yosys-smt2-wire pready 1
(define-fun |interrupt_ctrl_n pready| ((state |interrupt_ctrl_s|)) Bool true)
; yosys-smt2-input psel 1
; yosys-smt2-wire psel 1
; yosys-smt2-witness {"offset": 0, "path": ["\\psel"], "smtname": "psel", "smtoffset": 0, "type": "input", "width": 1}
(define-fun |interrupt_ctrl_n psel| ((state |interrupt_ctrl_s|)) Bool (|interrupt_ctrl#1| state))
(declare-fun |interrupt_ctrl#20| (|interrupt_ctrl_s|) (_ BitVec 32)) ; \pwdata
; yosys-smt2-input pwdata 32
; yosys-smt2-wire pwdata 32
; yosys-smt2-witness {"offset": 0, "path": ["\\pwdata"], "smtname": "pwdata", "smtoffset": 0, "type": "input", "width": 32}
(define-fun |interrupt_ctrl_n pwdata| ((state |interrupt_ctrl_s|)) (_ BitVec 32) (|interrupt_ctrl#20| state))
; yosys-smt2-input pwrite 1
; yosys-smt2-wire pwrite 1
; yosys-smt2-witness {"offset": 0, "path": ["\\pwrite"], "smtname": "pwrite", "smtoffset": 0, "type": "input", "width": 1}
(define-fun |interrupt_ctrl_n pwrite| ((state |interrupt_ctrl_s|)) Bool (|interrupt_ctrl#4| state))
; yosys-smt2-input rst_ni 1
; yosys-smt2-wire rst_ni 1
; yosys-smt2-witness {"offset": 0, "path": ["\\rst_ni"], "smtname": "rst_ni", "smtoffset": 0, "type": "input", "width": 1}
(define-fun |interrupt_ctrl_n rst_ni| ((state |interrupt_ctrl_s|)) Bool (= ((_ extract 0 0) (|interrupt_ctrl#10| state)) #b1))
(define-fun |interrupt_ctrl#21| ((state |interrupt_ctrl_s|)) (_ BitVec 1) (bvnot (ite (|interrupt_ctrl#8| state) #b1 #b0))) ; $auto$rtlil.cc:3255:Not$99
; yosys-smt2-assume 0 $auto$formalff.cc:987:execute$100
(define-fun |interrupt_ctrl_u 0| ((state |interrupt_ctrl_s|)) Bool (or (= ((_ extract 0 0) (|interrupt_ctrl#21| state)) #b1) (not true))) ; $auto$formalff.cc:987:execute$100
(define-fun |interrupt_ctrl#22| ((state |interrupt_ctrl_s|)) (_ BitVec 16) (ite (|interrupt_ctrl#17| state) ((_ extract 15 0) (|interrupt_ctrl#20| state)) (|interrupt_ctrl#11| state))) ; $procmux$82_Y
(define-fun |interrupt_ctrl#23| ((state |interrupt_ctrl_s|)) (_ BitVec 16) (ite (|interrupt_ctrl#7| state) (|interrupt_ctrl#22| state) (|interrupt_ctrl#11| state))) ; $0\irq_en[15:0]
(define-fun |interrupt_ctrl#24| ((state |interrupt_ctrl_s|)) (_ BitVec 16) (ite (= ((_ extract 0 0) (|interrupt_ctrl#10| state)) #b1) (|interrupt_ctrl#23| state) #b0000000000000000)) ; $auto$rtlil.cc:3390:Mux$95
(define-fun |interrupt_ctrl_a| ((state |interrupt_ctrl_s|)) Bool true)
(define-fun |interrupt_ctrl_u| ((state |interrupt_ctrl_s|)) Bool 
  (|interrupt_ctrl_u 0| state)
)
(define-fun |interrupt_ctrl_i| ((state |interrupt_ctrl_s|)) Bool true)
(define-fun |interrupt_ctrl_h| ((state |interrupt_ctrl_s|)) Bool true)
(define-fun |interrupt_ctrl_t| ((state |interrupt_ctrl_s|) (next_state |interrupt_ctrl_s|)) Bool 
  (= (|interrupt_ctrl#24| state) (|interrupt_ctrl#0| next_state)) ; $procdff$90 \_witness_.anyinit_procdff_90
) ; end of module interrupt_ctrl
; yosys-smt2-topmod interrupt_ctrl
; end of yosys output
